Version identifier: 20.1.0.0 | 2020-11-10 | 9bedb6d68
Tried aggregator 2 times.
MIP Presolve eliminated 1974 rows and 1056 columns.
MIP Presolve modified 4790 coefficients.
Aggregator did 199 substitutions.
Reduced MIP has 2846 rows, 2270 columns, and 9386 nonzeros.
Reduced MIP has 497 binaries, 1773 generals, 0 SOSs, and 0 indicators.
Presolve time = 0.02 sec. (11.63 ticks)
Probing fixed 60 vars, tightened 576 bounds.
Probing time = 0.00 sec. (2.11 ticks)
Tried aggregator 2 times.
Detecting symmetries...
MIP Presolve eliminated 1230 rows and 108 columns.
MIP Presolve modified 249 coefficients.
Aggregator did 30 substitutions.
Reduced MIP has 1586 rows, 2132 columns, and 5306 nonzeros.
Reduced MIP has 625 binaries, 1507 generals, 0 SOSs, and 0 indicators.
Presolve time = 0.02 sec. (7.69 ticks)
Probing time = 0.00 sec. (0.49 ticks)
Clique table members: 125.
MIP emphasis: balance optimality and feasibility.
MIP search method: dynamic search.
Parallel mode: deterministic, using up to 24 threads.
Root relaxation solution time = 0.03 sec. (5.60 ticks)

        Nodes                                         Cuts/
   Node  Left     Objective  IInf  Best Integer    Best Bound    ItCnt     Gap

      0     0        0.0000    75                      0.0000      515         
      0     0        0.0000    96                   Cuts: 193      662         
*     0+    0                           50.0000        0.0000           100.00%
*     0+    0                           21.0000        0.0000           100.00%
      0     0        0.0000   181       21.0000     Cuts: 115      830   57.14%
      0     2        0.0000    89       21.0000       17.0000      830   19.05%
Elapsed time = 1.00 sec. (220.02 ticks, tree = 0.02 MB, solutions = 2)
*   265+   39                           20.0000       17.0000            15.00%
*   454+   44                           18.0000       17.0000             5.56%
*   886+   35                           17.0000       17.0000             0.00%

Cover cuts applied:  12
Implied bound cuts applied:  203
Flow cuts applied:  8
Mixed integer rounding cuts applied:  13
Zero-half cuts applied:  64
Lift and project cuts applied:  24
Gomory fractional cuts applied:  25

Root node processing (before b&c):
  Real time             =    0.88 sec. (219.60 ticks)
Parallel b&c, 24 threads:
  Real time             =    0.83 sec. (139.57 ticks)
  Sync time (average)   =    0.50 sec.
  Wait time (average)   =    0.00 sec.
                          ------------
Total (root+branch&cut) =    1.72 sec. (359.17 ticks)

Solution status = Optimal
Solution LB = 17
Solution UB = 17
Runtime = 1.72194 seconds
	Command being timed: "/home/min/git_repos/CS598MEBProject/CNT-ILP/build/cnt -s 2 ./output/k8_n30/simC_c1_k8_n30_u3_s3_del02.input-right.cnp"
	User time (seconds): 22.61
	System time (seconds): 0.29
	Percent of CPU this job got: 1293%
	Elapsed (wall clock) time (h:mm:ss or m:ss): 0:01.77
	Average shared text size (kbytes): 0
	Average unshared data size (kbytes): 0
	Average stack size (kbytes): 0
	Average total size (kbytes): 0
	Maximum resident set size (kbytes): 170056
	Average resident set size (kbytes): 0
	Major (requiring I/O) page faults: 0
	Minor (reclaiming a frame) page faults: 66466
	Voluntary context switches: 10829
	Involuntary context switches: 2837
	Swaps: 0
	File system inputs: 16
	File system outputs: 16
	Socket messages sent: 0
	Socket messages received: 0
	Signals delivered: 0
	Page size (bytes): 4096
	Exit status: 0
